decision_x1=[0,7];
decision_x2=[0,7];
decision_x3=[0,7];
decision_x4=[0,7];
decision_x5=[0,7];
decision_x6=[0,7];
decision_x7=[0,7];
decision_x8=[0,7];
decision_x9=[0,7];
decision_x10=[0,7];
decision_x11=[0,7];
decision_x12=[0,7];
decision_x13=[0,7];
decision_x14=[0,7];
decision_x15=[0,7];
decision_x16=[0,7];
random_y1=[0,7];
random_y2=[0,7];
random_y3=[0,7];
random_y4=[0,7];
random_y5=[0,7];
random_y6=[0,7];
random_y7=[0,7];
constraint_x2_x1=[
0,0,8.9|
0,1,2.8|
0,2,2.8|
0,3,3.4|
0,4,5|
0,5,3.7|
0,6,1.6|
0,7,9.2|
1,0,6.1|
1,1,1.3|
1,2,2.9|
1,3,2|
1,4,6.6|
1,5,0.23|
1,6,4.8|
1,7,6.4|
2,0,9.7|
2,1,9.2|
2,2,5.6|
2,3,9.3|
2,4,7.6|
2,5,10|
2,6,7.4|
2,7,5.3|
3,0,2.9|
3,1,0.4|
3,2,2.1|
3,3,8.1|
3,4,8.9|
3,5,1.8|
3,6,8.9|
3,7,9.5|
4,0,8.5|
4,1,5.2|
4,2,4.7|
4,3,5.1|
4,4,3|
4,5,6.6|
4,6,3.2|
4,7,2.6|
5,0,0.8|
5,1,5.6|
5,2,9.5|
5,3,8.4|
5,4,9.8|
5,5,3.7|
5,6,3.6|
5,7,0.9|
6,0,5.1|
6,1,0.45|
6,2,0.22|
6,3,0.45|
6,4,4.9|
6,5,0.16|
6,6,9.1|
6,7,9.7|
7,0,6.9|
7,1,0.2|
7,2,1.7|
7,3,3.6|
7,4,6.9|
7,5,4.6|
7,6,4.5|
7,7,4|
];
constraint_x3_x2=[
0,0,1.7|
0,1,9.3|
0,2,9.7|
0,3,5.8|
0,4,0.51|
0,5,1.8|
0,6,1.6|
0,7,9|
1,0,9.1|
1,1,0.69|
1,2,3|
1,3,5.8|
1,4,0.38|
1,5,2.3|
1,6,0.079|
1,7,3.9|
2,0,1.2|
2,1,7.6|
2,2,5.2|
2,3,1.9|
2,4,0.026|
2,5,5.4|
2,6,6.7|
2,7,9.5|
3,0,5|
3,1,7|
3,2,9.8|
3,3,5.4|
3,4,6.8|
3,5,8.4|
3,6,1.7|
3,7,3.9|
4,0,7.3|
4,1,1.4|
4,2,9.5|
4,3,8.4|
4,4,9.5|
4,5,1.7|
4,6,3.7|
4,7,0.31|
5,0,1.4|
5,1,4.4|
5,2,7.3|
5,3,7.6|
5,4,3.9|
5,5,5.8|
5,6,5.5|
5,7,2.4|
6,0,8.5|
6,1,6.6|
6,2,1.9|
6,3,10|
6,4,0.99|
6,5,1.5|
6,6,9.1|
6,7,3.3|
7,0,6.8|
7,1,7.3|
7,2,4.4|
7,3,2.6|
7,4,8|
7,5,2.1|
7,6,4.5|
7,7,5.2|
];
constraint_x4_x3=[
0,0,8.1|
0,1,8.5|
0,2,4.4|
0,3,2.1|
0,4,9.8|
0,5,7.6|
0,6,7.4|
0,7,1.4|
1,0,6.4|
1,1,6.3|
1,2,3.5|
1,3,4.6|
1,4,1.3|
1,5,5.2|
1,6,8.6|
1,7,2.2|
2,0,2.1|
2,1,0.65|
2,2,3.2|
2,3,1.3|
2,4,1.9|
2,5,5.5|
2,6,1.1|
2,7,3.7|
3,0,8.9|
3,1,9.6|
3,2,2.6|
3,3,2.4|
3,4,4.4|
3,5,4.6|
3,6,1.1|
3,7,4.2|
4,0,1.8|
4,1,8.9|
4,2,3.1|
4,3,0.61|
4,4,9.4|
4,5,5.8|
4,6,9.9|
4,7,2.8|
5,0,3.6|
5,1,3.9|
5,2,4.8|
5,3,3|
5,4,5.2|
5,5,9.7|
5,6,2|
5,7,7|
6,0,0.19|
6,1,1.4|
6,2,3.7|
6,3,7.9|
6,4,9.3|
6,5,4.6|
6,6,2.5|
6,7,7.2|
7,0,5|
7,1,6.4|
7,2,8.3|
7,3,2|
7,4,0.43|
7,5,9.1|
7,6,2|
7,7,3.3|
];
constraint_x5_x1=[
0,0,8.5|
0,1,3.6|
0,2,5.9|
0,3,2.6|
0,4,9.5|
0,5,8.8|
0,6,9.5|
0,7,4.6|
1,0,1.8|
1,1,0.41|
1,2,0.5|
1,3,2.3|
1,4,8.6|
1,5,9.1|
1,6,6.7|
1,7,7|
2,0,4.4|
2,1,0.054|
2,2,7.9|
2,3,3|
2,4,8.6|
2,5,6.3|
2,6,2.1|
2,7,6.2|
3,0,6.9|
3,1,7.7|
3,2,9.9|
3,3,2|
3,4,5.3|
3,5,6.9|
3,6,4.8|
3,7,7.7|
4,0,3.5|
4,1,1.1|
4,2,6.6|
4,3,4.9|
4,4,8.2|
4,5,8.7|
4,6,6.4|
4,7,9|
5,0,3.7|
5,1,2.7|
5,2,1.3|
5,3,0.62|
5,4,0.1|
5,5,5.5|
5,6,9.3|
5,7,9.2|
6,0,8.8|
6,1,2.8|
6,2,8.2|
6,3,6.9|
6,4,4.5|
6,5,5.9|
6,6,9.7|
6,7,3.5|
7,0,5.8|
7,1,7.1|
7,2,7.8|
7,3,2.7|
7,4,8.2|
7,5,8.1|
7,6,5.3|
7,7,0.84|
];
constraint_x6_x2=[
0,0,4.3|
0,1,2.3|
0,2,9.7|
0,3,1.1|
0,4,7.9|
0,5,2.7|
0,6,9.6|
0,7,7.6|
1,0,6.4|
1,1,2|
1,2,2.7|
1,3,2.3|
1,4,2.6|
1,5,1.2|
1,6,1.8|
1,7,8|
2,0,3.6|
2,1,8.2|
2,2,5.4|
2,3,3.3|
2,4,6.7|
2,5,1.2|
2,6,9.2|
2,7,8.1|
3,0,5.8|
3,1,4.1|
3,2,3.8|
3,3,5.7|
3,4,8.2|
3,5,0.025|
3,6,1.6|
3,7,4.7|
4,0,6.3|
4,1,5.4|
4,2,0.59|
4,3,9.7|
4,4,6|
4,5,8.7|
4,6,9.5|
4,7,6.5|
5,0,3.3|
5,1,2.4|
5,2,0.55|
5,3,7.5|
5,4,7.5|
5,5,9.7|
5,6,2.8|
5,7,4.6|
6,0,3.2|
6,1,3.4|
6,2,7.4|
6,3,9.2|
6,4,9.4|
6,5,7.1|
6,6,0.22|
6,7,5.3|
7,0,8.5|
7,1,4.2|
7,2,4.8|
7,3,8.1|
7,4,2.2|
7,5,0.81|
7,6,2.3|
7,7,6.7|
];
constraint_x7_x3=[
0,0,1.1|
0,1,0.96|
0,2,5.3|
0,3,3.2|
0,4,7.9|
0,5,7.5|
0,6,7.3|
0,7,1.3|
1,0,3.7|
1,1,6.6|
1,2,8.8|
1,3,0.71|
1,4,5|
1,5,7.6|
1,6,8.3|
1,7,6.1|
2,0,9.3|
2,1,1.4|
2,2,6.8|
2,3,7|
2,4,1.4|
2,5,1.2|
2,6,8.9|
2,7,9.4|
3,0,7.3|
3,1,4|
3,2,0.11|
3,3,8.1|
3,4,9.7|
3,5,6.4|
3,6,8.7|
3,7,3.6|
4,0,2.1|
4,1,2.7|
4,2,0.27|
4,3,1.8|
4,4,3.3|
4,5,9.1|
4,6,3.8|
4,7,5.4|
5,0,1.1|
5,1,3.6|
5,2,6.4|
5,3,2.6|
5,4,2.6|
5,5,7.1|
5,6,9.5|
5,7,3.3|
6,0,2.6|
6,1,0.4|
6,2,3|
6,3,0.98|
6,4,0.75|
6,5,8.6|
6,6,0.72|
6,7,1.7|
7,0,4.4|
7,1,0.5|
7,2,3.8|
7,3,8.6|
7,4,9.1|
7,5,4.6|
7,6,9.9|
7,7,1.2|
];
constraint_x8_x4=[
0,0,8.7|
0,1,9.4|
0,2,9.5|
0,3,6.2|
0,4,6.7|
0,5,1.4|
0,6,9.2|
0,7,1.3|
1,0,7|
1,1,5.7|
1,2,9.9|
1,3,1.9|
1,4,8.1|
1,5,4.4|
1,6,2.1|
1,7,5.4|
2,0,2.5|
2,1,1.8|
2,2,7.7|
2,3,8.2|
2,4,8.7|
2,5,5.7|
2,6,9.8|
2,7,4.5|
3,0,5.1|
3,1,1|
3,2,9.6|
3,3,7.4|
3,4,4.9|
3,5,9.4|
3,6,2.1|
3,7,6.1|
4,0,8.1|
4,1,5.1|
4,2,8.1|
4,3,9.6|
4,4,3.4|
4,5,4|
4,6,8.5|
4,7,5.6|
5,0,0.56|
5,1,8.8|
5,2,0.48|
5,3,9.6|
5,4,0.24|
5,5,3.2|
5,6,5.6|
5,7,8.3|
6,0,2|
6,1,2.3|
6,2,8.2|
6,3,8.6|
6,4,3.4|
6,5,6.4|
6,6,6.6|
6,7,7.2|
7,0,9.4|
7,1,8.1|
7,2,1.7|
7,3,9|
7,4,5|
7,5,5.3|
7,6,2.1|
7,7,8.7|
];
constraint_x9_x5=[
0,0,6.7|
0,1,1.8|
0,2,1.4|
0,3,3.7|
0,4,3.6|
0,5,9.1|
0,6,0.13|
0,7,6.2|
1,0,4.8|
1,1,6.4|
1,2,0.33|
1,3,5.7|
1,4,6.6|
1,5,4.5|
1,6,9.5|
1,7,4|
2,0,7.2|
2,1,5.9|
2,2,7.1|
2,3,6.1|
2,4,6.8|
2,5,0.83|
2,6,6.5|
2,7,6.6|
3,0,3.7|
3,1,0.99|
3,2,3.2|
3,3,5.1|
3,4,9.6|
3,5,1.7|
3,6,8.3|
3,7,7.5|
4,0,9.9|
4,1,6.8|
4,2,2.8|
4,3,6.8|
4,4,3.9|
4,5,0.7|
4,6,0.35|
4,7,8.6|
5,0,3.8|
5,1,9.1|
5,2,9.5|
5,3,2.1|
5,4,3.4|
5,5,3.9|
5,6,6.4|
5,7,0.059|
6,0,9.6|
6,1,6|
6,2,4.9|
6,3,6.9|
6,4,8.4|
6,5,6.1|
6,6,2.1|
6,7,5.9|
7,0,6.1|
7,1,0.73|
7,2,2.4|
7,3,0.083|
7,4,5.9|
7,5,7.9|
7,6,5.9|
7,7,3.1|
];
constraint_x10_x6=[
0,0,0.71|
0,1,7.8|
0,2,8.2|
0,3,9.8|
0,4,9.4|
0,5,1.6|
0,6,3.8|
0,7,4.4|
1,0,7.6|
1,1,3.3|
1,2,1.6|
1,3,4.8|
1,4,3.8|
1,5,5.3|
1,6,7.7|
1,7,4.4|
2,0,2.2|
2,1,5.5|
2,2,6.5|
2,3,6.7|
2,4,5.9|
2,5,3.8|
2,6,9.6|
2,7,5.7|
3,0,8.8|
3,1,0.11|
3,2,4.6|
3,3,5.5|
3,4,2.5|
3,5,4.2|
3,6,3.5|
3,7,7.1|
4,0,6.4|
4,1,6|
4,2,6.8|
4,3,6.7|
4,4,2.4|
4,5,0.15|
4,6,5.1|
4,7,1.2|
5,0,6|
5,1,5.7|
5,2,2.6|
5,3,3.9|
5,4,2.8|
5,5,5.7|
5,6,8.2|
5,7,7.7|
6,0,10|
6,1,6.7|
6,2,2.7|
6,3,4.1|
6,4,9.4|
6,5,1.7|
6,6,6.9|
6,7,1.9|
7,0,4.1|
7,1,0.068|
7,2,5|
7,3,8.6|
7,4,0.4|
7,5,5.4|
7,6,5.5|
7,7,2|
];
constraint_x11_x7=[
0,0,7.3|
0,1,0.16|
0,2,8.9|
0,3,8.5|
0,4,0.92|
0,5,3|
0,6,7.4|
0,7,0.7|
1,0,7.3|
1,1,1.4|
1,2,0.67|
1,3,7|
1,4,5.1|
1,5,4.9|
1,6,7|
1,7,4.7|
2,0,0.065|
2,1,8.6|
2,2,9.8|
2,3,1.3|
2,4,6.8|
2,5,3.2|
2,6,2.3|
2,7,5.5|
3,0,0.77|
3,1,8.7|
3,2,7.1|
3,3,3.6|
3,4,9.7|
3,5,9|
3,6,3|
3,7,7.3|
4,0,5.3|
4,1,2.6|
4,2,3.6|
4,3,0.86|
4,4,3.6|
4,5,4.7|
4,6,8.9|
4,7,4.1|
5,0,2.3|
5,1,6.7|
5,2,2.5|
5,3,9|
5,4,3|
5,5,5.4|
5,6,8.2|
5,7,5.6|
6,0,4.2|
6,1,8.4|
6,2,6|
6,3,4.6|
6,4,6.2|
6,5,9.7|
6,6,1.1|
6,7,2.1|
7,0,0.014|
7,1,0.086|
7,2,7.8|
7,3,8.2|
7,4,6.4|
7,5,5.7|
7,6,6.7|
7,7,2.7|
];
constraint_x12_x8=[
0,0,8.7|
0,1,7.2|
0,2,6.2|
0,3,8.6|
0,4,0.71|
0,5,4.7|
0,6,4.9|
0,7,7.6|
1,0,6.2|
1,1,7.4|
1,2,5.3|
1,3,8|
1,4,6.2|
1,5,1.2|
1,6,8|
1,7,2.8|
2,0,3.9|
2,1,3.3|
2,2,1.3|
2,3,7.4|
2,4,5.2|
2,5,1.5|
2,6,9.9|
2,7,5.8|
3,0,9.8|
3,1,4.7|
3,2,3.2|
3,3,1.4|
3,4,10|
3,5,8.9|
3,6,6.8|
3,7,0.16|
4,0,4.6|
4,1,9.9|
4,2,0.29|
4,3,9.1|
4,4,0.0031|
4,5,2.7|
4,6,8.9|
4,7,6.5|
5,0,3.7|
5,1,0.31|
5,2,4.3|
5,3,8.1|
5,4,7.2|
5,5,5.6|
5,6,5.9|
5,7,3.5|
6,0,2|
6,1,8.1|
6,2,6.9|
6,3,7.7|
6,4,0.96|
6,5,1.6|
6,6,3.4|
6,7,8.2|
7,0,9|
7,1,0.71|
7,2,4.8|
7,3,3.7|
7,4,1.9|
7,5,0.62|
7,6,5.3|
7,7,3|
];
constraint_x13_x9=[
0,0,7.7|
0,1,5.2|
0,2,9.7|
0,3,9.2|
0,4,7.9|
0,5,3.3|
0,6,9.8|
0,7,8|
1,0,9.5|
1,1,5.7|
1,2,4.7|
1,3,9.7|
1,4,1.1|
1,5,5.9|
1,6,6.3|
1,7,8.5|
2,0,8.5|
2,1,9.3|
2,2,6.3|
2,3,8.2|
2,4,2|
2,5,9.9|
2,6,1.1|
2,7,6.4|
3,0,5.2|
3,1,0.24|
3,2,0.028|
3,3,4.3|
3,4,1.9|
3,5,9.2|
3,6,8.6|
3,7,7|
4,0,4.2|
4,1,3.3|
4,2,5.8|
4,3,5.8|
4,4,3.2|
4,5,6.8|
4,6,2|
4,7,5|
5,0,0.26|
5,1,2.7|
5,2,6.6|
5,3,2.9|
5,4,3|
5,5,9.6|
5,6,0.65|
5,7,2.7|
6,0,4.6|
6,1,5.9|
6,2,7.7|
6,3,6.2|
6,4,6.3|
6,5,0.34|
6,6,3.3|
6,7,0.31|
7,0,3.1|
7,1,1.3|
7,2,3.4|
7,3,3.5|
7,4,8.7|
7,5,2.6|
7,6,8|
7,7,7.7|
];
constraint_x14_x10=[
0,0,3.7|
0,1,4.2|
0,2,4.6|
0,3,6.1|
0,4,1.8|
0,5,6.8|
0,6,4.4|
0,7,4.8|
1,0,3|
1,1,7.9|
1,2,0.4|
1,3,6.6|
1,4,2.3|
1,5,8.8|
1,6,9.5|
1,7,0.48|
2,0,6.2|
2,1,6.1|
2,2,8|
2,3,8.7|
2,4,6.7|
2,5,8.9|
2,6,3|
2,7,5.3|
3,0,4.8|
3,1,4.5|
3,2,6.8|
3,3,0.62|
3,4,8.8|
3,5,3.8|
3,6,6|
3,7,9.8|
4,0,6.9|
4,1,4.9|
4,2,6.3|
4,3,4.2|
4,4,0.63|
4,5,6.9|
4,6,7.1|
4,7,6.7|
5,0,0.97|
5,1,9.3|
5,2,2.5|
5,3,0.84|
5,4,3.2|
5,5,8.7|
5,6,6.6|
5,7,4.4|
6,0,0.14|
6,1,6.9|
6,2,5.2|
6,3,5.4|
6,4,1.5|
6,5,6.8|
6,6,8.3|
6,7,1.2|
7,0,1.4|
7,1,0.74|
7,2,1.8|
7,3,7.3|
7,4,9.8|
7,5,9|
7,6,1.3|
7,7,1.2|
];
constraint_x15_x11=[
0,0,2|
0,1,2.4|
0,2,7.4|
0,3,7.4|
0,4,7.7|
0,5,3.8|
0,6,9.9|
0,7,4|
1,0,7.2|
1,1,5|
1,2,7.7|
1,3,2.6|
1,4,0.92|
1,5,5.4|
1,6,1.9|
1,7,0.031|
2,0,4.9|
2,1,7.8|
2,2,1.8|
2,3,7.7|
2,4,3.2|
2,5,6|
2,6,1.5|
2,7,8.7|
3,0,0.16|
3,1,4.9|
3,2,5.3|
3,3,3.4|
3,4,0.1|
3,5,6.2|
3,6,5.6|
3,7,3.5|
4,0,5.6|
4,1,0.64|
4,2,0.51|
4,3,8.5|
4,4,0.22|
4,5,10|
4,6,1.3|
4,7,7.6|
5,0,5.2|
5,1,6.1|
5,2,6.1|
5,3,8.9|
5,4,7.3|
5,5,8.7|
5,6,4.5|
5,7,8.7|
6,0,9.4|
6,1,1.2|
6,2,2.9|
6,3,1.2|
6,4,5.1|
6,5,3.3|
6,6,3.8|
6,7,6.6|
7,0,2|
7,1,7.7|
7,2,6.1|
7,3,1.2|
7,4,6.8|
7,5,2|
7,6,0.49|
7,7,4.7|
];
constraint_x16_x12=[
0,0,9.6|
0,1,6.5|
0,2,0.74|
0,3,5.9|
0,4,0.42|
0,5,7.7|
0,6,5.9|
0,7,1.5|
1,0,7.6|
1,1,4.6|
1,2,7.2|
1,3,6.5|
1,4,1.7|
1,5,0.38|
1,6,8.9|
1,7,0.4|
2,0,5|
2,1,4|
2,2,3.8|
2,3,2.6|
2,4,5.1|
2,5,5.9|
2,6,9|
2,7,9|
3,0,1|
3,1,1.5|
3,2,2.5|
3,3,7.9|
3,4,9.5|
3,5,2.4|
3,6,7.8|
3,7,1.7|
4,0,9.6|
4,1,7.1|
4,2,8.2|
4,3,0.14|
4,4,4.7|
4,5,5.3|
4,6,8.9|
4,7,2.4|
5,0,9.7|
5,1,0.17|
5,2,5.1|
5,3,1.4|
5,4,3.8|
5,5,4.2|
5,6,9.6|
5,7,6.2|
6,0,4.7|
6,1,2|
6,2,0.88|
6,3,0.86|
6,4,0.58|
6,5,1.3|
6,6,6.2|
6,7,4.2|
7,0,2.1|
7,1,0.21|
7,2,2.9|
7,3,9.9|
7,4,7.3|
7,5,2.3|
7,6,3.9|
7,7,6|
];
constraint_x1_y1=[
0,0,5.7|
0,1,2.2|
0,2,9.1|
0,3,7.4|
0,4,5.6|
0,5,7.9|
0,6,1.1|
0,7,7.5|
1,0,4.6|
1,1,2.7|
1,2,7.6|
1,3,9.6|
1,4,9.7|
1,5,3.1|
1,6,3.6|
1,7,2.8|
2,0,0.73|
2,1,9.1|
2,2,4.6|
2,3,6.6|
2,4,9.6|
2,5,1.4|
2,6,6.6|
2,7,3.4|
3,0,8.4|
3,1,2.9|
3,2,4.6|
3,3,8.7|
3,4,0.27|
3,5,1|
3,6,9.3|
3,7,0.24|
4,0,3|
4,1,8.3|
4,2,1.4|
4,3,1.3|
4,4,1.1|
4,5,5.9|
4,6,9.3|
4,7,7|
5,0,9.3|
5,1,1.2|
5,2,9.3|
5,3,8.6|
5,4,2.9|
5,5,5.6|
5,6,0.9|
5,7,8.3|
6,0,0.78|
6,1,10|
6,2,8.9|
6,3,7.9|
6,4,9.2|
6,5,0.32|
6,6,3.1|
6,7,0.21|
7,0,1.4|
7,1,9.4|
7,2,1.5|
7,3,0.78|
7,4,1.1|
7,5,0.55|
7,6,1.4|
7,7,5.9|
];
constraint_x2_y2=[
0,0,5.6|
0,1,3.8|
0,2,4.7|
0,3,3|
0,4,0.042|
0,5,9.9|
0,6,1.9|
0,7,2|
1,0,7|
1,1,8.4|
1,2,7.7|
1,3,0.72|
1,4,5.5|
1,5,6.1|
1,6,1.2|
1,7,5.6|
2,0,8.3|
2,1,9.3|
2,2,0.29|
2,3,9.8|
2,4,3.1|
2,5,6.3|
2,6,1.8|
2,7,0.72|
3,0,8.3|
3,1,5.6|
3,2,9.1|
3,3,0.25|
3,4,6.6|
3,5,0.76|
3,6,1.7|
3,7,1.4|
4,0,9.9|
4,1,8.3|
4,2,2.3|
4,3,2.5|
4,4,3.2|
4,5,0.84|
4,6,5.6|
4,7,1.5|
5,0,2.1|
5,1,3.4|
5,2,4.1|
5,3,5.6|
5,4,9.4|
5,5,8.5|
5,6,3.9|
5,7,1.9|
6,0,8.5|
6,1,9.1|
6,2,5.6|
6,3,4.6|
6,4,4.8|
6,5,7.6|
6,6,1.2|
6,7,2.2|
7,0,4.9|
7,1,2.3|
7,2,6.1|
7,3,5.5|
7,4,0.98|
7,5,5.9|
7,6,4.5|
7,7,1|
];
constraint_x3_y3=[
0,0,7.8|
0,1,5.4|
0,2,7|
0,3,4.7|
0,4,3.4|
0,5,8.9|
0,6,4.7|
0,7,0.26|
1,0,8.1|
1,1,9.7|
1,2,0.47|
1,3,9.6|
1,4,2.7|
1,5,5.9|
1,6,0.9|
1,7,0.83|
2,0,1.8|
2,1,0.74|
2,2,9.9|
2,3,1.9|
2,4,1.1|
2,5,7.1|
2,6,0.93|
2,7,4.1|
3,0,7|
3,1,3.1|
3,2,7.5|
3,3,4.4|
3,4,7|
3,5,1.4|
3,6,7|
3,7,2.5|
4,0,3.2|
4,1,5.8|
4,2,2.1|
4,3,4.3|
4,4,9.1|
4,5,4.8|
4,6,3.2|
4,7,1.9|
5,0,8.9|
5,1,7.2|
5,2,6.7|
5,3,3.2|
5,4,9.8|
5,5,5.3|
5,6,1.5|
5,7,2|
6,0,7.4|
6,1,2.1|
6,2,4.7|
6,3,0.18|
6,4,2.8|
6,5,9.5|
6,6,4|
6,7,7.8|
7,0,6|
7,1,7.1|
7,2,1.5|
7,3,9.1|
7,4,0.79|
7,5,5.7|
7,6,0.37|
7,7,5.9|
];
constraint_x4_y4=[
0,0,5.6|
0,1,5.5|
0,2,0.37|
0,3,5.2|
0,4,9.6|
0,5,6.6|
0,6,9.2|
0,7,2.1|
1,0,5.2|
1,1,0.55|
1,2,2.7|
1,3,5.8|
1,4,4|
1,5,7.6|
1,6,2.8|
1,7,8.9|
2,0,5.6|
2,1,5.1|
2,2,1.8|
2,3,4.6|
2,4,9.7|
2,5,3.9|
2,6,2.1|
2,7,5.8|
3,0,6|
3,1,2|
3,2,3.6|
3,3,3.3|
3,4,7|
3,5,9.6|
3,6,2.7|
3,7,1.1|
4,0,7.7|
4,1,4.1|
4,2,8.6|
4,3,1.4|
4,4,8.7|
4,5,5.8|
4,6,3.2|
4,7,5.2|
5,0,6.6|
5,1,4.4|
5,2,8|
5,3,5.4|
5,4,7.3|
5,5,5.9|
5,6,7.5|
5,7,9.5|
6,0,5.2|
6,1,6.1|
6,2,6.1|
6,3,4.5|
6,4,1.1|
6,5,2.9|
6,6,2.3|
6,7,4.5|
7,0,7.8|
7,1,1.1|
7,2,8.8|
7,3,5.7|
7,4,4.2|
7,5,5.4|
7,6,4.7|
7,7,6.4|
];
constraint_x5_y5=[
0,0,9.8|
0,1,5|
0,2,7.7|
0,3,7.7|
0,4,9.3|
0,5,4.1|
0,6,7.3|
0,7,10|
1,0,2.9|
1,1,9.9|
1,2,8.3|
1,3,5.1|
1,4,9.7|
1,5,1.2|
1,6,4.2|
1,7,7.2|
2,0,1.9|
2,1,0.68|
2,2,4.6|
2,3,9.6|
2,4,3.8|
2,5,3.3|
2,6,1.1|
2,7,6.1|
3,0,3.3|
3,1,5.9|
3,2,8.4|
3,3,3.4|
3,4,2|
3,5,7.1|
3,6,0.58|
3,7,3.4|
4,0,4.4|
4,1,7.2|
4,2,6.5|
4,3,3.6|
4,4,6|
4,5,6|
4,6,1.5|
4,7,6.8|
5,0,8.3|
5,1,5.8|
5,2,5.5|
5,3,9.3|
5,4,1.6|
5,5,3.3|
5,6,0.93|
5,7,8.9|
6,0,9.7|
6,1,5.8|
6,2,1.5|
6,3,5|
6,4,3.4|
6,5,7.5|
6,6,3.6|
6,7,0.59|
7,0,0.85|
7,1,1|
7,2,8.5|
7,3,8.8|
7,4,5.8|
7,5,1.5|
7,6,1.3|
7,7,2.7|
];
constraint_x6_y6=[
0,0,8.1|
0,1,7.7|
0,2,6|
0,3,3.2|
0,4,9.9|
0,5,8.2|
0,6,1.8|
0,7,1.8|
1,0,1.5|
1,1,4.2|
1,2,4|
1,3,7.3|
1,4,0.43|
1,5,1|
1,6,9.2|
1,7,4.2|
2,0,9.3|
2,1,0.56|
2,2,7|
2,3,5.1|
2,4,1.8|
2,5,0.55|
2,6,9.7|
2,7,6.3|
3,0,0.043|
3,1,7.3|
3,2,3.8|
3,3,3|
3,4,5|
3,5,5.3|
3,6,7.9|
3,7,1.1|
4,0,3|
4,1,0.14|
4,2,8.1|
4,3,7.4|
4,4,5.8|
4,5,2.7|
4,6,3.6|
4,7,5.3|
5,0,9.5|
5,1,2|
5,2,5.7|
5,3,7.9|
5,4,0.51|
5,5,3.1|
5,6,5.8|
5,7,5.1|
6,0,0.97|
6,1,5.3|
6,2,5.7|
6,3,9.5|
6,4,0.68|
6,5,9.9|
6,6,6.9|
6,7,2.2|
7,0,2.6|
7,1,4.6|
7,2,3.5|
7,3,2.1|
7,4,9.6|
7,5,8.7|
7,6,1|
7,7,8.3|
];
constraint_x7_y7=[
0,0,7.5|
0,1,3.6|
0,2,3.6|
0,3,5.6|
0,4,6|
0,5,5.4|
0,6,6.2|
0,7,7.3|
1,0,6.3|
1,1,8.2|
1,2,7.6|
1,3,8.1|
1,4,8.1|
1,5,0.51|
1,6,8|
1,7,4.9|
2,0,8.2|
2,1,8.5|
2,2,3.6|
2,3,7.8|
2,4,1.2|
2,5,3.2|
2,6,3.7|
2,7,8.7|
3,0,1.4|
3,1,4.3|
3,2,4.9|
3,3,1.9|
3,4,6.9|
3,5,8.7|
3,6,6|
3,7,7.3|
4,0,9|
4,1,6.4|
4,2,7.8|
4,3,9.8|
4,4,1.9|
4,5,3.9|
4,6,3.6|
4,7,4.1|
5,0,8.5|
5,1,7.7|
5,2,0.83|
5,3,6.6|
5,4,2|
5,5,0.42|
5,6,4.1|
5,7,3.2|
6,0,1.5|
6,1,1.7|
6,2,9.4|
6,3,1.8|
6,4,3.1|
6,5,1|
6,6,0.3|
6,7,1|
7,0,7|
7,1,1.1|
7,2,9.7|
7,3,9.3|
7,4,3.1|
7,5,2.1|
7,6,7.8|
7,7,7.7|
];
initial_distribution_y1=[0.12,0.22,0.1,0.11,0.21,0.12,0.076,0.036];
initial_distribution_y2=[0.064,0.13,0.091,0.096,0.21,0.12,0.096,0.19];
initial_distribution_y3=[0.2,0.21,0.017,0.095,0.04,0.18,0.07,0.19];
initial_distribution_y4=[0.13,0.16,0.13,0.032,0.035,0.047,0.18,0.29];
initial_distribution_y5=[0.15,0.25,0.24,0.089,0.076,0.14,0.017,0.029];
initial_distribution_y6=[0.15,0.046,0.086,0.22,0.1,0.043,0.22,0.14];
initial_distribution_y7=[0.15,0.11,0.055,0.28,0.036,0.19,0.072,0.1];
transition_y1=[
0.18,0.052,0.2,0.082,0.22,0.092,0.094,0.081|
0.1,0.15,0.085,0.035,0.25,0.08,0.15,0.14|
0.1,0.21,0.2,0.18,0.047,0.051,0.098,0.11|
0.043,0.14,0.097,0.16,0.019,0.15,0.24,0.15|
0.2,0.17,0.017,0.19,0.065,0.13,0.061,0.16|
0.064,0.28,0.18,0.12,0.0082,0.051,0.23,0.058|
0.014,0.17,0.18,0.13,0.14,0.13,0.17,0.07|
0.2,0.18,0.14,0.13,0.074,0.14,0.028,0.12|
];
transition_y2=[
0.16,0.075,0.061,0.15,0.052,0.16,0.17,0.17|
0.082,0.26,0.14,0.13,0.082,0.24,0.058,0.0038|
0.25,0.017,0.0095,0.21,0.051,0.15,0.17,0.15|
0.29,0.019,0.069,0.058,0.021,0.27,0.26,0.014|
0.084,0.26,0.069,0.22,0.13,0.12,0.11,0.014|
0.16,0.032,0.055,0.0046,0.28,0.091,0.13,0.25|
0.058,0.15,0.24,0.28,0.023,0.13,0.11,0.014|
0.13,0.12,0.0031,0.017,0.041,0.3,0.11,0.28|
];
transition_y3=[
0.095,0.12,0.021,0.17,0.13,0.17,0.14,0.15|
0.2,0.14,0.027,0.19,0.023,0.14,0.2,0.085|
0.11,0.065,0.0069,0.11,0.19,0.2,0.043,0.27|
0.1,0.2,0.085,0.085,0.22,0.011,0.095,0.2|
0.075,0.15,0.077,0.16,0.25,0.12,0.056,0.11|
0.19,0.081,0.21,0.062,0.07,0.14,0.1,0.15|
0.11,0.21,0.068,0.18,0.14,0.039,0.088,0.18|
0.065,0.074,0.13,0.23,0.13,0.19,0.029,0.14|
];
transition_y4=[
0.078,0.18,0.2,0.012,0.14,0.19,0.1,0.088|
0.14,0.033,0.031,0.017,0.21,0.16,0.24,0.17|
0.2,0.02,0.062,0.22,0.12,0.31,0.046,0.011|
0.27,0.3,0.033,0.046,0.0072,0.059,0.17,0.12|
0.18,0.12,0.21,0.17,0.0077,0.14,0.019,0.15|
0.24,0.13,0.027,0.031,0.048,0.11,0.21,0.2|
0.069,0.15,0.14,0.026,0.23,0.056,0.17,0.16|
0.18,0.058,0.11,0.054,0.073,0.15,0.25,0.13|
];
transition_y5=[
0.031,0.15,0.058,0.17,0.19,0.077,0.12,0.2|
0.04,0.088,0.15,0.037,0.2,0.011,0.14,0.35|
0.067,0.2,0.14,0.035,0.23,0.14,0.15,0.036|
0.094,0.043,0.35,0.2,0.053,0.087,0.12,0.053|
0.022,0.095,0.15,0.19,0.083,0.18,0.089,0.2|
0.044,0.26,0.2,0.064,0.11,0.062,0.11,0.14|
0.23,0.053,0.21,0.1,0.019,0.22,0.16,0.011|
0.22,0.052,0.14,0.067,0.14,0.19,0.054,0.14|
];
transition_y6=[
0.16,0.083,0.067,0.12,0.13,0.08,0.14,0.22|
0.01,0.18,0.15,0.061,0.066,0.2,0.15,0.17|
0.21,0.012,0.22,0.23,0.077,0.095,0.099,0.06|
0.22,0.19,0.0073,0.088,0.25,0.018,0.24,0.0048|
0.13,0.029,0.0076,0.18,0.2,0.094,0.18,0.17|
0.21,0.014,0.24,0.016,0.024,0.12,0.24,0.13|
0.15,0.095,0.16,0.18,0.12,0.049,0.077,0.17|
0.13,0.0086,0.15,0.25,0.0036,0.21,0.033,0.21|
];
transition_y7=[
0.22,0.18,0.22,0.062,0.036,0.19,0.03,0.065|
0.017,0.14,0.21,0.062,0.18,0.18,0.13,0.07|
0.0081,0.18,0.073,0.25,0.21,0.077,0.059,0.14|
0.094,0.23,0.15,0.0039,0.16,0.24,0.084,0.032|
0.029,0.12,0.16,0.19,0.099,0.18,0.2,0.019|
0.11,0.0069,0.087,0.068,0.18,0.16,0.21,0.18|
0.05,0.23,0.17,0.036,0.039,0.12,0.21,0.15|
0.14,0.21,0.063,0.066,0.21,0.091,0.07,0.16|
];
